CMD:
./solvers/bin/cadical --plain --no-reduce -t 1600 ./data/cnfs//6s317b14/6s317b14.15.cnf

c --- [ banner ] -------------------------------------------------------------
c 
c CaDiCaL SAT Solver
c Copyright (c) 2016-2024
c A. Biere, M. Fleury, N. Froleyks, K. Fazekas, F. Pollitt, T. Faller
c JKU Linz, University of Freiburg, TU Wien
c 
c Version 2.1.3 5296d3d2a9bf48c154ab2acb5e44625776d821bf
c g++ (Gentoo 12.3.1_p20230526 p2) 12.3.1 20230526 -Wall -Wextra -O3 -DNDEBUG
c Sat Aug 9 07:26:21 PDT 2025 Linux cedar2.int.cedar.computecanada.ca 5.14.0-362.24.2.el9_3.x86_64 x86_64
c 
c --- [ limit ] --------------------------------------------------------------
c 
c setting time limit to 1600 seconds real time (due to '-t 1600')
c 
c --- [ parsing input ] ------------------------------------------------------
c 
c reading DIMACS file from './data/cnfs//6s317b14/6s317b14.15.cnf'
c opening file to read './data/cnfs//6s317b14/6s317b14.15.cnf'
c found 'p cnf 76176 225606' header
c parsed 225606 clauses in 0.04 seconds process time
c 
c --- [ options ] ------------------------------------------------------------
c 
c   --compact=false                (different from default 'true')
c   --decompose=false              (different from default 'true')
c   --deduplicate=false            (different from default 'true')
c   --elim=false                   (different from default 'true')
c   --probe=false                  (different from default 'true')
c   --reduce=false                 (different from default 'true')
c   --subsume=false                (different from default 'true')
c   --ternary=false                (different from default 'true')
c   --transred=false               (different from default 'true')
c   --vivify=false                 (different from default 'true')
c 
c --- [ solving ] ------------------------------------------------------------
c 
c time measured in process time since initialization
c 
c  seconds  reductions  redundant  irredundant
c         MB    restarts       trail       variables
c          level   conflicts       glue         remaining
c 
c *  0.04 37  0 0   0    0    0  0% 0 208206 63271 83%
c {  0.04 37  0 0   0    0    0  0% 0 208206 63271 83%
c i  0.06 38 343 0   3  216  181 57% 3 208206 63262 83%
c i  0.08 38 234 0   9  372  315 54% 3 208206 63248 83%
c i  0.09 38 213 0  10  417  355 54% 3 208206 63246 83%
c i  0.10 38 199 0  17  451  386 52% 3 208206 63238 83%
c i  0.10 38 198 0  17  452  386 52% 3 208206 63230 83%
c i  0.11 38 191 0  23  473  404 51% 3 208206 63220 83%
c i  0.11 38 191 0  24  475  405 51% 3 208206 62852 83%
c i  0.11 38 190 0  24  476  405 51% 3 208206 62850 83%
c i  0.11 38 188 0  25  482  410 51% 3 208206 62838 82%
c i  0.11 38 187 0  25  485  410 51% 3 208206 62816 82%
c i  0.11 38 186 0  25  487  410 51% 3 208206 62470 82%
c i  0.11 38 184 0  25  493  414 50% 3 208206 62462 82%
c i  0.11 38 183 0  25  496  415 50% 3 208206 62436 82%
c i  0.11 38 183 0  25  498  415 50% 3 208206 62405 82%
c i  0.11 38 182 0  25  500  416 50% 3 208206 62214 82%
c i  0.11 38 181 0  25  503  417 50% 3 208206 61643 81%
c i  0.13 38 155 0  44  610  516 48% 3 208206 61615 81%
c i  0.13 38 152 0  48  625  526 47% 3 208206 61610 81%
c 
c  seconds   reductions  redundant  irredundant
c         MB     restarts       trail       variables
c           level   conflicts       glue         remaining
c 
c i  0.13 38 151 0  48  627  527 47% 3 208206 61572 81%
c i  0.13 38 151 0  50  631  530 47% 3 208206 61567 81%
c i  0.14 38 137 0  54  727  614 46% 3 208206 61565 81%
c i  0.15 38 134 0  58  741  627 46% 3 208206 61563 81%
c i  0.15 38 133 0  59  746  631 46% 3 208206 61528 81%
c i  0.16 38 121 0  60  889  759 45% 3 208206 61522 81%
c }  0.18 38 110 0  66 1001  865 44% 3 208206 61522 81%
c [  0.18 38  0 0  66 1001  865  0% 0 208206 61522 81%
c O  0.18 38 229 0  66 1002  866 26% 2 208206 61522 81%
c i  0.40 39 304 0  67 2382 2170 58% 9 208206 61517 81%
c i  0.40 39 302 0  67 2392 2178 58% 9 208206 61515 81%
c i  0.40 39 301 0  67 2394 2179 58% 9 208206 61513 81%
c ]  0.47 39 221 0  67 3001 2747 51% 9 208206 61513 81%
c {  0.47 39 110 0  67 3001 2747 44% 3 208206 61513 81%
c F  0.47 39 110 0  68 3003 2749 44% 3 208206 61513 81%
c i  0.52 39 90 0  99 3370 3080 42% 3 208206 61509 81%
c i  0.55 39 82 0 119 3621 3308 42% 3 208206 61508 81%
c i  0.56 39 80 0 133 3675 3359 41% 3 208206 61503 81%
c i  0.59 39 79 0 151 3747 3426 41% 4 208206 61501 81%
c i  0.60 39 78 0 161 3794 3470 41% 4 208206 61447 81%
c 
c  seconds  reductions  redundant  irredundant
c         MB    restarts       trail       variables
c          level   conflicts       glue         remaining
c 
c i  0.68 39 67 0 215 4332 3968 39% 4 208206 61445 81%
c i  0.92 40 53 0 349 5842 5315 37% 4 208206 61440 81%
c #  0.95 40 53 0 358 6004 5459 37% 4 208206 61440 81%
c }  1.24 40 48 0 496 7001 6342 37% 4 208206 61440 81%
... skipped 3 lines ...
c i  1.85 41 104 0 498 9948 8952 42% 10 208206 61423 81%
c I  1.87 41 103 0 498 10005 8985 42% 10 208206 61423 81%
c i  2.22 41 84 0 499 11302 10018 41% 10 208206 61422 81%
c ]  3.33 42 57 0 501 15002 12693 40% 10 208206 61422 81%
c {  3.33 42 48 0 501 15002 12693 37% 4 208206 61422 81%
c B  3.33 42 48 0 503 15006 12697 37% 4 208206 61422 81%
c i  3.59 42 46 0 658 15770 13373 37% 4 208206 61420 81%
c i  3.60 42 46 0 660 15824 13421 37% 4 208206 61406 81%
c i  3.70 42 45 0 720 16171 13735 37% 4 208206 61404 81%
c i  3.73 42 44 0 733 16347 13900 36% 4 208206 61402 81%
c i  3.85 42 44 0 783 16831 14355 36% 4 208206 61395 81%
c i  3.98 42 42 0 876 17296 14756 36% 4 208206 61365 81%
c i  4.07 42 42 0 948 17617 15042 36% 4 208206 61361 81%
c 
c  seconds  reductions    redundant  irredundant
c         MB    restarts         trail       variables
c          level    conflicts        glue         remaining
c 
c i  4.07 42 42 0 951 17629 15051 36% 4 208206 61357 81%
c i  4.14 42 41 0 999 17856 15253 36% 4 208206 61355 81%
c i  4.23 43 41 0 1085 18232 15604 36% 4 208206 61350 81%
c i  4.65 43 38 0 1376 19863 17111 36% 5 208206 61345 81%
c W  4.98 43 36 0 1529 21007 17990 36% 5 178445 61345 81%
c i  4.98 43 36 0 1530 21011 17993 36% 5 178445 61343 81%
c i  5.01 43 36 0 1547 21093 18063 36% 5 178445 61338 81%
c i  5.17 43 36 0 1667 21721 18627 36% 5 178445 61319 80%
c i  5.29 43 35 0 1732 22201 18991 36% 5 178445 61302 80%
c i  5.33 43 35 0 1759 22392 19169 36% 5 178445 61290 80%
c i  5.49 43 34 0 1884 23130 19827 35% 5 178445 61262 80%
c i  5.61 43 33 0 2001 23646 20287 35% 5 178445 61246 80%
c i  5.76 43 32 0 2115 24391 20942 35% 5 178445 61239 80%
c i  5.78 43 32 0 2131 24483 21018 35% 5 178445 61227 80%
c i  5.96 43 31 0 2212 25743 22057 34% 5 178445 61097 80%
c i  5.97 43 31 0 2212 25847 22143 34% 5 178445 61090 80%
c i  5.97 43 31 0 2212 25854 22147 34% 5 178445 60774 80%
c i  5.97 43 31 0 2212 25855 22147 34% 5 178445 60543 79%
c i  5.97 43 31 0 2212 25856 22147 34% 5 178445 60541 79%
c i  5.97 43 31 0 2212 25860 22149 34% 5 178445 60507 79%
c 
c  seconds  reductions     redundant  irredundant
c         MB    restarts          trail       variables
c          level     conflicts        glue         remaining
c 
c i  5.97 43 31 0 2212 25863 22151 34% 5 178445 60505 79%
c }  5.97 43 31 0 2212 25871 22154 34% 5 178445 60456 79%
c 0  5.97 43 31 0 2212 25871 22154 34% 5 178445 60456 79%
c 
c --- [ result ] -------------------------------------------------------------
c 
s UNSATISFIABLE
c 
c --- [ run-time profiling ] -------------------------------------------------
c 
c process time taken by individual solving procedures
c (percentage relative to process time for solving)
c 
c         5.94  100.00% search
c         3.47   58.43% unstable
c         2.38   40.10% stable
c         0.08    1.42% walk
c         0.04    0.62% parse
c         0.00    0.05% lucky
c         0.00    0.00% simplify
c   =================================
c         5.94   99.38% solve
c 
c last line shows process time for solving
c (percentage relative to total process time)
c 
c --- [ statistics ] ---------------------------------------------------------
c 
c chronological:             10393        40.17 %  of conflicts
c conflicts:                 25871      4358.56    per second
c decisions:                102018     17187.25    per second
c fixed:                     15566        20.43 %  of all variables
c learned:                   24754        95.68 %  per conflict
c learned_lits:             906248       100.00 %  learned literals
c minimized:                     0         0.00 %  learned literals
c shrunken:                 221242        24.41 %  learned literals
c minishrunken:             171594        18.93 %  learned literals
c otfs:                        209         0.81 %  of conflict
c propagations:           91675303        15.44 M  per second
c rephased:                      6      4311.83    interval
c restarts:                   2212        11.70    interval
c stabilizing:                   2        38.66 %  of conflicts
c subsumed:                   2388         1.03 %  of all clauses
c strengthened:                206         0.09 %  of all clauses
c walked:                        1     25871.00    interval
c 
c seconds are measured in process time for solving
c 
c --- [ resources ] ----------------------------------------------------------
c 
c total process time since initialization:         5.97    seconds
c total real time since initialization:            6.01    seconds
c maximum resident set size of process:           43.50    MB
c 
c --- [ shutting down ] ------------------------------------------------------
c 
c exit 20
